0	1.1
1	28
2	9.1
3	4.1
4	5.1
5	3.1
6	15
7	21
8	24
9	17
10	0.1
11	10
12	5.1
13	27
14	8.1
15	7.1
16	6.1
17	24
18	29
19	1.1
20	25
21	21
22	13
23	8.1
24	15
25	23
26	27
27	17
28	16
29	6.1
30	28
31	27
32	21
